#######################



#######################
Set parameter TimeLimit to value 500
Set parameter SoftMemLimit to value 125
Set parameter LogFile to value 1003-MIPFocus0-Presolve2-TimeLimit500-k16x240-8.log
Set parameter Presolve to value 2
Set parameter Seed to value 18
Using license file /opt/gurobi/gurobi.lic

Gurobi Optimizer version 10.0.3 build v10.0.3rc0 (linux64)
Copyright (c) 2023, Gurobi Optimization, LLC

Read MPS format model from file /miplib2010/k16x240.mps.bz2
Reading time = 0.00 seconds
k16x240: 256 rows, 480 columns, 960 nonzeros

CPU model: Intel(R) Xeon(R) E-2388G CPU @ 3.20GHz, instruction set [SSE2|AVX|AVX2|AVX512]
Thread count: 8 physical cores, 16 logical processors, using up to 16 threads

Optimize a model with 256 rows, 480 columns and 960 nonzeros
Model fingerprint: 0x4e80885f
Variable types: 240 continuous, 240 integer (240 binary)
Coefficient statistics:
  Matrix range     [1e+00, 1e+03]
  Objective range  [1e+00, 1e+03]
  Bounds range     [1e+00, 1e+03]
  RHS range        [4e+00, 4e+02]
Found heuristic solution: objective 19474.000000
Presolve time: 0.00s
Presolved: 256 rows, 480 columns, 960 nonzeros
Variable types: 240 continuous, 240 integer (240 binary)
Root relaxation presolve removed 241 rows and 240 columns
Root relaxation presolved: 15 rows, 240 columns, 450 nonzeros


Root relaxation: objective 2.769838e+03, 16 iterations, 0.00 seconds (0.00 work units)

    Nodes    |    Current Node    |     Objective Bounds      |     Work
 Expl Unexpl |  Obj  Depth IntInf | Incumbent    BestBd   Gap | It/Node Time

     0     0 2769.83800    0   14 19474.0000 2769.83800  85.8%     -    0s
H    0     0                    11359.000000 2769.83800  75.6%     -    0s
H    0     0                    11317.000000 8084.69631  28.6%     -    0s
H    0     0                    11261.000000 8084.69631  28.2%     -    0s
H    0     0                    11240.000000 8084.69631  28.1%     -    0s
H    0     0                    10981.000000 8084.69631  26.4%     -    0s
     0     0 8084.69631    0   26 10981.0000 8084.69631  26.4%     -    0s
H    0     0                    10835.000000 8084.69631  25.4%     -    0s
     0     0 8528.16906    0   24 10835.0000 8528.16906  21.3%     -    0s
     0     0 8539.18062    0   32 10835.0000 8539.18062  21.2%     -    0s
     0     0 8548.03675    0   29 10835.0000 8548.03675  21.1%     -    0s
     0     0 8707.67202    0   35 10835.0000 8707.67202  19.6%     -    0s
H    0     0                    10801.000000 8707.67202  19.4%     -    0s
     0     0 8782.51228    0   33 10801.0000 8782.51228  18.7%     -    0s
     0     0 8788.73775    0   31 10801.0000 8788.73775  18.6%     -    0s
     0     0 8877.68282    0   25 10801.0000 8877.68282  17.8%     -    0s
     0     0 8892.95670    0   32 10801.0000 8892.95670  17.7%     -    0s
     0     0 8898.47384    0   34 10801.0000 8898.47384  17.6%     -    0s
     0     0 9063.48270    0   35 10801.0000 9063.48270  16.1%     -    0s
H    0     0                    10765.000000 9063.48270  15.8%     -    0s
H    0     0                    10739.000000 9067.78836  15.6%     -    0s
     0     0 9067.78836    0   31 10739.0000 9067.78836  15.6%     -    0s
     0     0 9102.49522    0   30 10739.0000 9102.49522  15.2%     -    0s
H    0     0                    10717.000000 9112.63833  15.0%     -    0s
     0     0 9112.63833    0   42 10717.0000 9112.63833  15.0%     -    0s
     0     0 9116.71744    0   39 10717.0000 9116.71744  14.9%     -    0s
     0     0 9125.61062    0   34 10717.0000 9125.61062  14.8%     -    0s
     0     0 9125.61062    0   34 10717.0000 9125.61062  14.8%     -    0s
     0     2 9126.46212    0   34 10717.0000 9126.46212  14.8%     -    0s
H  131   142                    10674.000000 9260.88220  13.2%  34.0    0s
 36000 12407 10455.7504   34   16 10674.0000 10063.0872  5.72%  25.9    5s
 76053 18034 10468.8120   30   25 10674.0000 10237.0032  4.09%  27.0   10s
 115131 15295 10540.9111   36   16 10674.0000 10381.5645  2.74%  27.9   15s

Cutting planes:
  Gomory: 1
  Lift-and-project: 12
  Cover: 71
  Implied bound: 19
  MIR: 196
  Flow cover: 313
  Flow path: 38
  Inf proof: 2
  Zero half: 10
  Network: 50
  Relax-and-lift: 3

Explored 154629 nodes (4149295 simplex iterations) in 19.08 seconds (27.95 work units)
Thread count was 16 (of 16 available processors)

Solution count 10: 10674 10717 10739 ... 11317

Optimal solution found (tolerance 1.00e-04)
Best objective 1.067400000000e+04, best bound 1.067400000000e+04, gap 0.0000%
